42
42
42
42
42
42
42
42
42
42
42
42
42
42
42
42
42
42
42
42
42
42
42
42
42
42
42
42
42
42
43
43
43
43
43
43
43
43
43
43
43
43
43
43
43
43
43
43
43
43
43
43
43
43
43
43
43
43
43
43
43
43
43
43
43
43
43
43
43
43
43
44
44
44
44
44
44
44
44
44
44
44
44
44
44
44
44
44
44
44
44
44
44
44
44
44
44
44
44
44
44
44
44
44
44
44
44
44
44
44
44
45
45
45
45
45
45
45
45
45
45
45
45
45
45
45
45
45
45
45
45
45
45
45
45
45
45
45
45
45
45
45
45
45
45
45
45
45
45
46
46
46
46
46
46
46
46
46
46
46
46
46
46
46
46
46
46
46
46
46
46
46
46
46
46
46
46
46
46
46
46
46
46
46
46
47
47
47
47
47
47
47
47
47
47
47
47
47
47
47
47
47
47
47
47
47
47
47
47
47
47
47
47
47
47
47
47
47
47
47
48
48
48
48
48
48
48
48
48
48
48
48
48
48
48
48
48
48
48
48
48
48
48
48
48
48
48
48
48
48
48
48
48
48
49
49
49
49
49
49
49
49
49
49
49
49
49
49
49
49
49
49
49
49
49
49
49
49
49
49
49
49
49
49
49
49
50
50
50
50
50
50
50
50
50
50
50
50
50
50
50
50
50
50
50
50
50
50
50
50
50
50
50
50
50
50
50
51
51
51
51
51
51
51
51
51
51
51
51
51
51
51
51
51
51
51
51
51
51
51
51
51
51
51
51
51
51
52
52
52
52
52
52
52
52
52
52
52
52
52
52
52
52
52
52
52
52
52
52
52
52
52
52
52
52
52
53
53
53
53
53
53
53
53
53
53
53
53
53
53
53
53
53
53
53
53
53
53
53
53
53
53
53
53
54
54
54
54
54
54
54
54
54
54
54
54
54
54
54
54
54
54
54
54
54
54
54
54
54
54
54
55
55
55
55
55
55
55
55
55
55
55
55
55
55
55
55
55
55
55
55
55
55
55
55
55
55
55
56
56
56
56
56
56
56
56
56
56
56
56
56
56
56
56
56
56
56
56
56
56
56
56
56
57
57
57
57
57
57
57
57
57
57
57
57
57
57
57
57
57
57
57
57
57
57
57
57
58
58
58
58
58
58
58
58
58
58
58
58
58
58
58
58
58
58
58
58
58
58
58
58
59
59
59
59
59
59
59
59
59
59
59
59
59
59
59
59
59
59
59
59
59
59
59
60
60
60
60
60
60
60
60
60
60
60
60
60
60
60
60
60
60
60
60
60
60
61
61
61
61
61
61
61
61
61
61
61
61
61
61
61
61
61
61
61
61
61
61
62
62
62
62
62
62
62
62
62
62
62
62
62
62
62
62
62
62
62
62
62
63
63
63
63
63
63
63
63
63
63
63
63
63
63
63
63
63
63
63
63
64
64
64
64
64
64
64
64
64
64
64
64
64
64
64
64
64
64
64
64
65
65
65
65
65
65
65
65
65
65
65
65
65
65
65
65
65
65
65
66
66
66
66
66
66
66
66
66
66
66
66
66
66
66
66
66
66
66
67
67
67
67
67
67
67
67
67
67
67
67
67
67
67
67
67
67
68
68
68
68
68
68
68
68
68
68
68
68
68
68
68
68
68
68
69
69
69
69
69
69
69
69
69
69
69
69
69
69
69
69
69
70
70
70
70
70
70
70
70
70
70
70
70
70
70
70
70
70
71
71
71
71
71
71
71
71
71
71
71
71
71
71
71
71
72
72
72
72
72
72
72
72
72
72
72
72
72
72
72
72
73
73
73
73
73
73
73
73
73
73
73
73
73
73
73
74
74
74
74
74
74
74
74
74
74
74
74
74
74
74
75
75
75
75
75
75
75
75
75
75
75
75
75
75
75
76
76
76
76
76
76
76
76
76
76
76
76
76
76
77
77
77
77
77
77
77
77
77
77
77
77
77
77
78
78
78
78
78
78
78
78
78
78
78
78
78
78
79
79
79
79
79
79
79
79
79
79
79
79
79
80
80
80
80
80
80
80
80
80
80
80
80
80
81
81
81
81
81
81
81
81
81
81
81
81
81
82
82
82
82
82
82
82
82
82
82
82
82
83
83
83
83
83
83
83
83
83
83
83
83
84
84
84
84
84
84
84
84
84
84
84
84
85
85
85
85
85
85
85
85
85
85
85
85
86
86
86
86
86
86
86
86
86
86
86
87
87
87
87
87
87
87
87
87
87
87
88
88
88
88
88
88
88
88
88
88
88
89
89
89
89
89
89
89
89
89
89
90
90
90
90
90
90
90
90
90
90
90
91
91
91
91
91
91
91
91
91
91
92
92
92
92
92
92
92
92
92
92
93
93
93
93
93
93
93
93
93
93
94
94
94
94
94
94
94
94
94
95
95
95
95
95
95
95
95
95
95
96
96
96
96
96
96
96
96
96
97
97
97
97
97
97
97
97
97
98
98
98
98
98
98
98
98
99
99
99
99
99
99
99
99
99
100
100
100
100
100
100
100
100
100
101
101
101
101
101
101
101
101
102
102
102
102
102
102
102
102
103
103
103
103
103
103
103
103
104
104
104
104
104
104
104
104
105
105
105
105
105
105
105
105
106
106
106
106
106
106
106
107
107
107
107
107
107
107
107
108
108
108
108
108
108
108
109
109
109
109
109
109
109
110
110
110
110
110
110
110
111
111
111
111
111
111
111
112
112
112
112
112
112
112
113
113
113
113
113
113
113
114
114
114
114
114
114
115
115
115
115
115
115
115
116
116
116
116
116
116
117
117
117
117
117
117
118
118
118
118
118
118
118
119
119
119
119
119
119
120
120
120
120
120
120
121
121
121
121
121
121
122
122
122
122
122
123
123
123
123
123
123
124
124
124
124
124
124
125
125
125
125
125
126
126
126
126
126
126
127
127
127
127
127
128
128
128
128
128
129
129
129
129
129
130
130
130
130
130
130
131
131
131
131
131
132
132
132
132
132
133
133
133
133
134
134
134
134
134
135
135
135
135
135
136
136
136
136
136
137
137
137
137
138
138
138
138
138
139
139
139
139
140
140
140
140
140
141
141
141
141
142
142
142
142
143
143
143
143
143
144
144
144
144
145
145
145
145
146
146
146
146
147
147
147
147
148
148
148
148
149
149
149
149
150
150
150
150
151
151
151
151
152
152
152
152
153
153
153
154
154
154
154
155
155
155
155
156
156
156
157
157
157
157
158
158
158
159
159
159
159
160
160
160
161
161
161
162
162
162
162
163
163
163
164
164
164
165
165
165
165
166
166
166
167
167
167
168
168
168
169
169
169
170
170
170
171
171
171
172
172
172
173
173
173
174
174
174
175
175
175
176
176
176
177
177
178
178
178
179
179
179
180
180
180
181
181
182
182
182
183
183
183
184
184
185
185
185
186
186
187
187
187
188
188
189
189
189
190
190
191
191
191
192
192
193
193
194
194
194
195
195
196
196
197
197
197
198
198
199
199
200
200
201
201
201
202
202
203
203
204
204
205
205
206
206
207
207
208
208
209
209
210
210
211
211
212
212
213
213
214
214
215
215
216
216
217
217
218
218
219
219
220
221
221
222
222
223
223
224
224
225
226
226
227
227
228
228
229
230
230
231
231
232
233
233
234
234
235
236
236
237
238
238
239
240
240
241
241
242
243
243
244
245
245
246
247
248
248
249
250
250
251
252
252
253
254
255
255
256
257
258
258
259
260
261
261
262
263
264
264
265
266
267
268
268
269
270
271
272
272
273
274
275
276
277
278
278
279
280
281
282
283
284
285
286
286
287
288
289
290
291
292
293
294
295
296
297
298
299
300
301
302
303
304
305
306
307
308
309
310
311
312
313
315
316
317
318
319
320
321
322
324
325
326
327
328
330
331
332
333
334
336
337
338
340
341
342
343
345
346
347
349
350
351
353
354
356
357
358
360
361
363
364
366
367
369
370
372
373
375
376
378
380
381
383
384
386
388
389
391
393
395
396
398
400
402
403
405
407
409
411
413
415
416
418
420
422
424
426
428
430
432
434
437
439
441
443
445
447
450
452
454
456
459
461
463
466
468
471
473
476
478
481
483
486
488
491
494
496
499
502
505
508
510
513
516
519
522
525
528
531
534
538
541
544
547
551
554
557
561
564
568
572
575
579
583
586
590
594
598
602
606
610
614
618
622
627
631
635
640
644
649
654
658
663
668
673
678
683
688
694
699
704
710
715
721
727
733
739
745
751
757
763
770
776
783
790
797
804
811
818
826
833
841
849
857
865
873
881
890
899
908
917
926
936
945
955
965
976
986
997
1008
1019
1031
1043
1055
1067
1079
1092
1106
1119
1133
1147
1162
1177
1192
1208
1224
1241
1258
1275
1293
1312
1331
1350
1371
1391
1413
1435
1458
1481
1506
1531
1557
1584
1612
1641
1670
1702
1734
1767
1802
1838
1876
1915
1956
1998
2043
2089
2138
2189
2242
2298
2358
2420
2485
2554
2627
2705
2787
2874
2967
3066
3172
3285
3407
3538
3680
3834
4000
4182
4382
4601
4843
5113
5414
5752
6136
6575
7081
7671
8369
9206
10230
11509
13154
15346
18417
23022
30697
46048
92099
